language ESSENCE' 1.0

letting bibd_RelationAsMatrix be
        [[true, true, true, true, true, true, true, true, true, true, true, true, true, true, true, true, true, true,
          true, true, true, true, true, true, true, true, true, true, true, true, true, true, true, true, true;
              int(1..35)],
         [true, true, true, true, true, true, true, true, true, true, true, true, true, true, true, true, true, true,
          true, true, true, true, true, true, true, true, true, true, true, true, true, true, true, true, true;
              int(1..35)],
         [true, true, true, true, true, true, true, true, true, true, true, true, true, true, true, true, true, true,
          true, true, true, true, true, true, true, true, true, true, true, true, true, true, true, true, true;
              int(1..35)],
         [true, true, true, true, true, true, true, true, true, true, true, true, true, true, true, true, true, true,
          true, true, true, true, true, true, true, true, true, true, true, true, true, true, true, true, true;
              int(1..35)],
         [true, true, true, true, true, true, true, true, true, true, true, true, true, true, true, true, true, true,
          true, true, true, true, true, true, true, true, true, true, true, true, true, true, true, true, true;
              int(1..35)],
         [true, true, true, true, true, true, true, true, true, true, true, true, true, true, true, true, true, true,
          true, true, true, true, true, true, true, true, true, true, true, true, true, true, true, true, true;
              int(1..35)],
         [true, true, true, true, true, true, true, true, true, true, true, true, true, true, true, true, true, true,
          true, true, true, true, true, true, true, true, true, true, true, true, true, true, true, true, true;
              int(1..35)],
         [true, true, true, true, true, true, true, true, true, true, true, true, true, true, true, true, true, true,
          true, true, true, true, true, true, true, true, true, true, true, true, true, true, true, true, true;
              int(1..35)],
         [true, true, true, true, true, true, true, true, true, true, true, true, true, true, true, true, true, true,
          true, true, true, true, true, true, true, true, true, true, true, true, true, true, true, true, true;
              int(1..35)],
         [true, true, true, true, true, true, true, true, true, true, true, true, true, true, true, true, true, true,
          true, true, true, true, true, true, true, true, true, true, true, true, true, true, true, true, true;
              int(1..35)],
         [true, true, true, true, true, true, true, true, true, true, true, true, true, true, true, true, true, true,
          true, true, true, true, true, true, true, true, true, true, true, true, true, true, true, true, true;
              int(1..35)],
         [true, true, true, true, true, true, true, true, true, true, true, true, true, true, true, true, true, true,
          true, true, true, true, true, true, true, true, true, true, true, true, true, true, true, true, true;
              int(1..35)],
         [true, true, true, true, true, true, true, true, true, true, true, true, true, true, true, true, true, true,
          true, true, true, true, true, true, true, true, true, true, true, true, true, true, true, true, true;
              int(1..35)],
         [true, true, true, true, true, true, true, true, true, true, true, true, true, true, true, true, true, true,
          true, true, true, true, true, true, true, true, true, true, true, true, true, true, true, true, true;
              int(1..35)],
         [true, true, true, true, true, true, true, true, true, true, true, true, true, true, true, true, true, true,
          true, true, true, true, true, true, true, true, true, true, true, true, true, true, true, true, true;
              int(1..35)],
         [true, true, true, true, true, true, true, true, true, true, true, true, true, true, true, true, true, true,
          true, true, true, true, true, true, true, true, true, true, true, true, true, true, true, true, true;
              int(1..35)],
         [true, true, true, true, true, true, true, true, true, true, true, true, true, true, true, true, true, true,
          true, true, true, true, true, true, true, true, true, true, true, true, true, true, true, true, true;
              int(1..35)],
         [true, true, true, true, true, true, true, true, true, true, true, true, true, true, true, true, true, true,
          true, true, true, true, true, true, true, true, true, true, true, true, true, true, true, true, true;
              int(1..35)],
         [true, true, true, true, true, true, true, true, true, true, true, true, true, true, true, true, true, true,
          true, true, true, true, true, true, true, true, true, true, true, true, true, true, true, true, true;
              int(1..35)],
         [true, true, true, true, true, true, true, true, true, true, true, true, true, true, true, true, true, true,
          true, true, true, true, true, true, true, true, true, true, true, true, true, true, true, true, true;
              int(1..35)],
         [true, true, true, true, true, true, true, true, true, true, true, true, true, true, true, true, true, true,
          true, true, true, true, true, true, true, true, true, true, true, true, true, true, true, true, true;
              int(1..35)],
         [true, true, true, true, true, true, true, true, true, true, true, true, true, true, true, true, true, true,
          true, true, true, true, true, true, true, true, true, true, true, true, true, true, true, true, true;
              int(1..35)],
         [true, true, true, true, true, true, true, true, true, true, true, true, true, true, true, true, true, true,
          true, true, true, true, true, true, true, true, true, true, true, true, true, true, true, true, true;
              int(1..35)],
         [true, true, true, true, true, true, true, true, true, true, true, true, true, true, true, true, true, true,
          true, true, true, true, true, true, true, true, true, true, true, true, true, true, true, true, true;
              int(1..35)],
         [true, true, true, true, true, true, true, true, true, true, true, true, true, true, true, true, true, true,
          true, true, true, true, true, true, true, true, true, true, true, true, true, true, true, true, true;
              int(1..35)],
         [true, true, true, true, true, true, true, true, true, true, true, true, true, true, true, true, true, true,
          true, true, true, true, true, true, true, true, true, true, true, true, true, true, true, true, true;
              int(1..35)],
         [true, true, true, true, true, true, true, true, true, true, true, true, true, true, true, true, true, true,
          true, true, true, true, true, true, true, true, true, true, true, true, true, true, true, true, true;
              int(1..35)],
         [true, true, true, true, true, true, true, true, true, true, true, true, true, true, true, true, true, true,
          true, true, true, true, true, true, true, true, true, true, true, true, true, true, true, true, true;
              int(1..35)],
         [true, true, true, true, true, true, true, true, true, true, true, true, true, true, true, true, true, true,
          true, true, true, true, true, true, true, true, true, true, true, true, true, true, true, true, true;
              int(1..35)],
         [true, true, true, true, true, true, true, true, true, true, true, true, true, true, true, true, true, true,
          true, true, true, true, true, true, true, true, true, true, true, true, true, true, true, true, true;
              int(1..35)],
         [true, true, true, true, true, true, true, true, true, true, true, true, true, true, true, true, true, true,
          true, true, true, true, true, true, true, true, true, true, true, true, true, true, true, true, true;
              int(1..35)],
         [true, true, true, true, true, true, true, true, true, true, true, true, true, true, true, true, true, true,
          true, true, true, true, true, true, true, true, true, true, true, true, true, true, true, true, true;
              int(1..35)],
         [true, true, true, true, true, true, true, true, true, true, true, true, true, true, true, true, true, true,
          true, true, true, true, true, true, true, true, true, true, true, true, true, true, true, true, true;
              int(1..35)],
         [true, true, true, true, true, true, true, true, true, true, true, true, true, true, true, true, true, true,
          true, true, true, true, true, true, true, true, true, true, true, true, true, true, true, true, true;
              int(1..35)],
         [true, true, true, true, true, true, true, true, true, true, true, true, true, true, true, true, true, true,
          true, true, true, true, true, true, true, true, true, true, true, true, true, true, true, true, true;
              int(1..35)];
             int(1..35)]
$ Visualisation for bibd_RelationAsMatrix
$ T T T T T T T T T T T T T T T T T T T T T T T T T T T T T T T T T T T
$ T T T T T T T T T T T T T T T T T T T T T T T T T T T T T T T T T T T
$ T T T T T T T T T T T T T T T T T T T T T T T T T T T T T T T T T T T
$ T T T T T T T T T T T T T T T T T T T T T T T T T T T T T T T T T T T
$ T T T T T T T T T T T T T T T T T T T T T T T T T T T T T T T T T T T
$ T T T T T T T T T T T T T T T T T T T T T T T T T T T T T T T T T T T
$ T T T T T T T T T T T T T T T T T T T T T T T T T T T T T T T T T T T
$ T T T T T T T T T T T T T T T T T T T T T T T T T T T T T T T T T T T
$ T T T T T T T T T T T T T T T T T T T T T T T T T T T T T T T T T T T
$ T T T T T T T T T T T T T T T T T T T T T T T T T T T T T T T T T T T
$ T T T T T T T T T T T T T T T T T T T T T T T T T T T T T T T T T T T
$ T T T T T T T T T T T T T T T T T T T T T T T T T T T T T T T T T T T
$ T T T T T T T T T T T T T T T T T T T T T T T T T T T T T T T T T T T
$ T T T T T T T T T T T T T T T T T T T T T T T T T T T T T T T T T T T
$ T T T T T T T T T T T T T T T T T T T T T T T T T T T T T T T T T T T
$ T T T T T T T T T T T T T T T T T T T T T T T T T T T T T T T T T T T
$ T T T T T T T T T T T T T T T T T T T T T T T T T T T T T T T T T T T
$ T T T T T T T T T T T T T T T T T T T T T T T T T T T T T T T T T T T
$ T T T T T T T T T T T T T T T T T T T T T T T T T T T T T T T T T T T
$ T T T T T T T T T T T T T T T T T T T T T T T T T T T T T T T T T T T
$ T T T T T T T T T T T T T T T T T T T T T T T T T T T T T T T T T T T
$ T T T T T T T T T T T T T T T T T T T T T T T T T T T T T T T T T T T
$ T T T T T T T T T T T T T T T T T T T T T T T T T T T T T T T T T T T
$ T T T T T T T T T T T T T T T T T T T T T T T T T T T T T T T T T T T
$ T T T T T T T T T T T T T T T T T T T T T T T T T T T T T T T T T T T
$ T T T T T T T T T T T T T T T T T T T T T T T T T T T T T T T T T T T
$ T T T T T T T T T T T T T T T T T T T T T T T T T T T T T T T T T T T
$ T T T T T T T T T T T T T T T T T T T T T T T T T T T T T T T T T T T
$ T T T T T T T T T T T T T T T T T T T T T T T T T T T T T T T T T T T
$ T T T T T T T T T T T T T T T T T T T T T T T T T T T T T T T T T T T
$ T T T T T T T T T T T T T T T T T T T T T T T T T T T T T T T T T T T
$ T T T T T T T T T T T T T T T T T T T T T T T T T T T T T T T T T T T
$ T T T T T T T T T T T T T T T T T T T T T T T T T T T T T T T T T T T
$ T T T T T T T T T T T T T T T T T T T T T T T T T T T T T T T T T T T
$ T T T T T T T T T T T T T T T T T T T T T T T T T T T T T T T T T T T

